40	100	100	100
6	99	97
44	87	87
13	76	71
31	70	67
3	69	67
38	97	98
48	77	67
19	75	90
28	81	92
25	67	72
24	87	69
33	68	87
1	91	72
37	96	83
36	67	83
16	95	79
37	72	79
22	71	68
14	67	92
29	86	86
42	75	95
9	98	68
34	70	95
2	99	80
9	67	83
40	84	84
37	69	80
24	89	76
37	76	86
43	82	85
24	99	72
25	75	90
39	97	70
13	81	66
43	88	82
7	69	84
25	78	87
38	71	72
22	86	72
19	91	70
